(set-option :produce-models true)
(set-logic QF_UF)
(declare-fun p59() Bool)
(declare-fun p44() Bool)
(declare-fun p66() Bool)
(declare-fun p0() Bool)
(declare-fun p10() Bool)
(declare-fun p56() Bool)
(declare-fun p1() Bool)
(declare-fun p15() Bool)
(declare-fun p41() Bool)
(declare-fun p36() Bool)
(declare-fun p6() Bool)
(declare-fun p45() Bool)
(declare-fun p39() Bool)
(declare-fun p4() Bool)
(declare-fun p68() Bool)
(declare-fun p69() Bool)
(declare-fun p3() Bool)
(declare-fun p28() Bool)
(declare-fun p34() Bool)
(declare-fun p2() Bool)
(declare-fun p67() Bool)
(declare-fun p12() Bool)
(declare-fun p17() Bool)
(declare-fun p20() Bool)
(declare-fun p58() Bool)
(declare-fun p51() Bool)
(declare-fun p52() Bool)
(declare-fun p19() Bool)
(declare-fun p60() Bool)
(declare-fun p25() Bool)
(declare-fun p16() Bool)
(declare-fun p49() Bool)
(declare-fun p32() Bool)
(declare-fun p27() Bool)
(declare-fun p46() Bool)
(declare-fun p24() Bool)
(declare-fun p9() Bool)
(declare-fun p22() Bool)
(declare-fun p38() Bool)
(declare-fun p8() Bool)
(declare-fun p33() Bool)
(declare-fun p26() Bool)
(declare-fun p37() Bool)
(declare-fun p21() Bool)
(declare-fun p13() Bool)
(declare-fun p63() Bool)
(declare-fun p55() Bool)
(declare-fun p23() Bool)
(declare-fun p35() Bool)
(declare-fun p57() Bool)
(declare-fun p14() Bool)
(declare-fun p50() Bool)
(declare-fun p53() Bool)
(declare-fun p30() Bool)
(declare-fun p7() Bool)
(declare-fun p61() Bool)
(declare-fun p43() Bool)
(declare-fun p18() Bool)
(declare-fun p11() Bool)
(declare-fun p5() Bool)
(declare-fun p62() Bool)
(declare-fun p47() Bool)
(declare-fun p42() Bool)
(declare-fun p64() Bool)
(declare-fun p54() Bool)
(declare-fun p65() Bool)
(declare-fun p31() Bool)
(declare-fun p29() Bool)
(declare-fun p40() Bool)
(declare-fun p48() Bool)
(assert
(and (or p59 p44 (not p66)) (or p0 p10 (not p56)) (or (not p1) p15 p41) (or p36 p6 p45) (or p39 (not p4) (not p68)) (or (not p69) p3 p28) (or (not p34) (not p2) (not p67)) (or p12 p17 (not p0)) (or p20 p58 (not p51)) (or (not p56) (not p52) (not p19)) (or p60 p69 (not p25)) (or p16 (not p49) (not p32)) (or (not p27) p46 (not p58)) (or p24 p19 (not p9)) (or (not p22) p41 p49) (or p34 p38 (not p0)) (or (not p44) p8 (not p33)) (or (not p26) p39 (not p69)) (or p37 p2 p60) (or (not p21) (not p13) p52) (or (not p63) (not p51) (not p34)) (or p26 (not p55) p23) (or p59 p63 (not p35)) (or (not p51) p44 (not p32)) (or p57 (not p33) (not p51)) (or p66 (not p27) p14) (or (not p27) (not p46) (not p12)) (or p2 (not p50) (not p14)) (or (not p9) p53 (not p63)) (or p30 (not p7) p61) (or p43 p66 p45) (or (not p18) (not p14) (not p16)) (or (not p38) p11 (not p11)) (or (not p46) p26 (not p45)) (or p52 (not p17) p68) (or p23 p12 (not p35)) (or p25 (not p22) (not p6)) (or p6 (not p5) (not p39)) (or p35 (not p10) p56) (or (not p69) p0 p57) (or p24 (not p63) p7) (or p27 p57 (not p45)) (or p18 p9 p25) (or p62 (not p32) (not p59)) (or (not p41) (not p61) (not p6)) (or (not p32) p57 (not p57)) (or (not p24) (not p9) (not p7)) (or (not p69) p26 p25) (or p57 p15 (not p15)) (or (not p63) (not p5) p57) (or (not p59) p68 p30) (or p12 p59 (not p4)) (or p45 p21 (not p3)) (or p50 (not p61) p47) (or p6 (not p13) p7) (or (not p21) p19 (not p35)) (or (not p50) p36 p47) (or p62 (not p51) (not p10)) (or p52 p50 (not p37)) (or (not p17) p33 (not p33)) (or p61 p5 (not p30)) (or p60 (not p44) (not p16)) (or p67 p56 (not p49)) (or p28 (not p42) p59) (or p50 (not p0) p27) (or p46 (not p12) p3) (or (not p49) p45 p35) (or p42 (not p24) p44) (or p56 (not p57) p24) (or (not p41) (not p64) (not p57)) (or (not p15) p27 (not p35)) (or (not p20) p9 (not p54)) (or (not p43) p53 (not p65)) (or (not p26) p5 (not p28)) (or (not p32) p65 p23) (or (not p13) (not p9) p56) (or (not p65) (not p52) (not p63)) (or (not p34) (not p9) (not p18)) (or (not p45) p62 (not p46)) (or p1 p51 p35) (or (not p21) (not p34) (not p30)) (or (not p68) (not p53) (not p55)) (or p68 p18 p5) (or p8 (not p15) (not p18)) (or (not p21) p6 (not p1)) (or (not p41) p19 (not p20)) (or p0 p35 p62) (or p24 p15 (not p58)) (or (not p41) (not p47) (not p38)) (or p2 p59 (not p52)) (or p37 p24 p1) (or p2 p12 (not p27)) (or (not p31) (not p3) (not p29)) (or (not p51) p49 (not p35)) (or (not p12) (not p24) p65) (or (not p37) p36 p37) (or p62 (not p37) (not p39)) (or (not p24) (not p29) p39) (or (not p34) p69 p60) (or (not p63) (not p22) p59) (or (not p52) p5 (not p12)) (or (not p34) p26 p3) (or p8 (not p1) p31) (or p26 p62 (not p19)) (or (not p68) p0 p66) (or (not p12) p59 p40) (or p42 p62 p25) (or p48 p67 p59) (or (not p10) (not p18) p47) (or (not p41) (not p61) (not p49)) (or (not p47) (not p12) (not p2)) (or (not p18) p11 (not p43)) (or p1 (not p21) (not p51)) (or p22 p24 p0) (or p35 p65 (not p60)) (or p43 p14 p33) (or p52 p8 (not p55)) (or (not p17) (not p37) (not p61)) (or p43 p25 p16) (or p16 (not p24) p52) (or p57 (not p39) p67) (or (not p46) (not p4) p33) (or (not p17) (not p31) (not p48)) (or p3 p20 p9) (or p12 p46 (not p3)) (or (not p11) (not p20) (not p15)) (or p46 (not p6) p11) (or p32 p13 (not p48)) (or p55 (not p16) p27) (or p37 (not p63) (not p43)) (or (not p62) p63 p52) (or (not p52) p30 p15) (or (not p50) (not p60) (not p49)) (or p1 (not p47) (not p17)) (or p53 (not p16) p41) (or (not p36) (not p62) p10) (or (not p3) (not p2) (not p3)) (or (not p22) p69 p39) (or p61 (not p56) p29) (or (not p25) p47 (not p31)) (or (not p36) p43 p53) (or p21 (not p46) (not p4)) (or p26 p23 p52) (or p57 p39 (not p67)) (or (not p8) (not p36) p50) (or (not p65) p31 p4) (or (not p14) (not p60) p25) (or p5 p4 p12) (or (not p13) (not p54) (not p4)) (or p6 p3 (not p43)) (or p11 p68 p2) (or (not p25) (not p44) p51) (or (not p69) (not p55) (not p35)) (or (not p43) (not p61) (not p55)) (or (not p51) p14 (not p38)) (or p56 p24 (not p18)) (or (not p68) p43 p56) (or p1 p55 p5) (or p44 (not p4) p52) (or (not p9) (not p60) (not p38)) (or (not p65) p32 p45) (or p64 (not p47) (not p63)) (or p18 p69 p63) (or (not p41) (not p29) (not p21)) (or p22 (not p25) (not p33)) (or (not p24) p47 p65) (or p40 p63 p32) (or (not p57) p40 p43) (or (not p13) (not p31) p37) (or p40 (not p14) (not p33)) (or (not p46) p61 p46) (or p66 p52 p14) (or p55 p32 (not p44)) (or p2 p33 (not p34)) (or p6 (not p68) (not p55)) (or p69 p16 p52) (or (not p47) p52 p59) (or (not p12) p23 (not p55)) (or p58 (not p58) p14) (or p1 p61 (not p31)) (or (not p3) (not p63) (not p44)) (or (not p25) p21 (not p2)) (or (not p50) (not p4) p58) (or p50 p30 (not p54)) (or p25 (not p50) p38) (or (not p50) p35 (not p41)) (or (not p0) p47 (not p68)) (or (not p17) p64 (not p64)) (or p13 (not p40) (not p49)) (or p48 (not p22) p1) (or (not p10) p51 p6) (or (not p28) p30 p42) (or (not p60) p53 p52) (or (not p59) p61 (not p57)) (or (not p65) p41 (not p44)) (or (not p49) p12 (not p11)) (or (not p31) (not p66) (not p20)) (or (not p37) p60 p10) (or (not p60) p26 (not p61)) (or (not p36) (not p6) p64) (or (not p5) (not p46) (not p38)) (or (not p14) (not p38) (not p9)) (or p68 p55 (not p16)) (or p20 (not p30) (not p57)) (or p57 p40 (not p39)) (or (not p47) p28 (not p44)) (or (not p62) (not p29) (not p55)) (or p43 (not p66) p69) (or p8 (not p65) p21) (or p32 p69 p48) (or p11 p59 p33) (or p7 p30 (not p38)) (or (not p58) (not p53) p58) (or (not p30) p23 (not p54)) (or p39 p5 (not p17)) (or (not p15) p6 (not p66)) (or p26 p24 (not p18)) (or p41 p17 p54) (or p40 (not p37) p24) (or (not p58) (not p36) (not p65)) (or p44 p47 (not p61)) (or p15 p19 p38) (or (not p11) p44 p52) (or p6 p8 p26) (or p61 p57 (not p18)) (or (not p41) (not p44) p16) (or (not p66) p11 p59) (or (not p4) p60 p7) (or (not p49) p40 p39) (or p66 (not p41) p55) (or (not p49) (not p34) p40) (or p53 (not p64) p10) (or p45 p34 p33) (or (not p17) (not p15) (not p38)) (or (not p22) (not p34) p26) (or (not p52) (not p3) p52) (or p12 (not p0) (not p12)) (or p42 (not p19) p30) (or (not p30) p32 p37) (or p44 (not p61) p38) (or (not p67) p27 p24) (or (not p9) p38 p36) (or p49 (not p43) (not p58)) (or (not p26) (not p48) p38) (or (not p11) (not p28) p45) (or p65 p25 p60) (or p47 (not p30) (not p8)) (or (not p60) p40 (not p41)) (or p43 (not p50) p19) (or (not p52) p40 p0) (or (not p44) p39 (not p20)) (or p69 (not p7) (not p8)) (or p49 p35 p9) (or (not p23) p40 (not p23)) (or (not p48) p60 (not p25)) (or (not p33) p27 (not p33)) (or (not p55) p28 (not p25)) (or (not p58) p20 p49) (or (not p9) p1 (not p24)) (or p27 (not p15) p6) (or (not p52) p8 p21) (or p67 (not p69) (not p25)) (or p20 p47 (not p24)) (or p51 (not p69) p27) (or (not p36) (not p69) (not p63)) (or p56 p16 (not p22)) (or p10 p42 p29) (or p36 p31 p62) (or (not p3) (not p37) p4) (or p14 (not p14) (not p43)) (or p0 (not p60) p32) (or (not p59) (not p4) (not p18)) (or p34 p30 (not p66)) (or (not p42) p59 p69) (or (not p8) p23 (not p9)) (or p54 (not p59) p37) (or (not p15) p22 (not p31)) (or p7 (not p26) (not p25)) (or p16 p25 (not p5)) (or p30 p50 (not p51)) (or (not p28) p36 p33) (or (not p26) p15 (not p29)) (or p31 p27 p10) (or (not p7) p23 (not p37)) (or p66 (not p0) p15) (or (not p59) p37 p50) (or p12 p9 (not p9)) (or p2 p25 (not p52)) (or p29 (not p26) p27) (or p31 p14 (not p20)) (or (not p41) (not p31) p16) (or (not p54) (not p19) p66) (or (not p31) (not p26) (not p29)) (or (not p44) (not p16) p42) (or (not p2) p25 (not p56)) (or p10 p14 p54) (or p11 p1 (not p50)))
)
(check-sat)
(get-model)
